p edge 46 408
e 1 9
e 1 10
e 1 11
e 1 12
e 1 14
e 1 16
e 1 18
e 1 19
e 1 21
e 1 25
e 1 28
e 1 29
e 1 30
e 1 35
e 1 36
e 1 38
e 1 40
e 1 41
e 1 44
e 1 46
e 2 6
e 2 9
e 2 10
e 2 11
e 2 13
e 2 15
e 2 16
e 2 18
e 2 21
e 2 22
e 2 23
e 2 26
e 2 27
e 2 34
e 2 38
e 2 39
e 2 43
e 3 4
e 3 5
e 3 8
e 3 9
e 3 10
e 3 13
e 3 15
e 3 17
e 3 26
e 3 28
e 3 29
e 3 33
e 3 34
e 3 35
e 3 37
e 3 38
e 3 41
e 3 42
e 3 43
e 3 44
e 3 45
e 4 6
e 4 12
e 4 14
e 4 20
e 4 23
e 4 25
e 4 27
e 4 29
e 4 33
e 4 37
e 4 38
e 4 39
e 4 42
e 4 44
e 4 45
e 5 9
e 5 10
e 5 13
e 5 17
e 5 18
e 5 22
e 5 23
e 5 25
e 5 27
e 5 30
e 5 31
e 5 33
e 5 35
e 5 38
e 5 39
e 5 41
e 5 45
e 6 7
e 6 10
e 6 11
e 6 14
e 6 15
e 6 19
e 6 20
e 6 22
e 6 23
e 6 26
e 6 28
e 6 32
e 6 33
e 6 35
e 6 37
e 6 38
e 6 40
e 7 11
e 7 16
e 7 17
e 7 18
e 7 20
e 7 21
e 7 23
e 7 24
e 7 27
e 7 28
e 7 31
e 7 33
e 7 36
e 7 39
e 7 41
e 7 42
e 7 46
e 8 16
e 8 17
e 8 20
e 8 22
e 8 24
e 8 28
e 8 29
e 8 35
e 8 38
e 8 45
e 8 46
e 9 10
e 9 13
e 9 14
e 9 20
e 9 22
e 9 25
e 9 26
e 9 31
e 9 34
e 9 35
e 9 36
e 9 37
e 9 43
e 10 18
e 10 22
e 10 25
e 10 29
e 10 32
e 10 35
e 10 36
e 10 37
e 10 39
e 10 41
e 10 42
e 11 15
e 11 16
e 11 27
e 11 30
e 11 32
e 11 33
e 11 34
e 11 38
e 11 39
e 11 40
e 11 46
e 12 13
e 12 15
e 12 16
e 12 18
e 12 19
e 12 23
e 12 31
e 12 33
e 12 34
e 12 37
e 12 39
e 12 42
e 12 44
e 12 45
e 13 15
e 13 16
e 13 17
e 13 24
e 13 27
e 13 28
e 13 33
e 13 34
e 13 36
e 13 37
e 13 40
e 13 43
e 13 44
e 14 19
e 14 23
e 14 24
e 14 27
e 14 32
e 14 33
e 14 37
e 14 40
e 14 45
e 14 46
e 15 23
e 15 25
e 15 29
e 15 30
e 15 34
e 15 39
e 15 43
e 15 46
e 16 18
e 16 25
e 16 26
e 16 27
e 16 29
e 16 32
e 16 36
e 16 39
e 16 41
e 16 43
e 16 45
e 16 46
e 17 22
e 17 23
e 17 24
e 17 32
e 17 33
e 17 34
e 17 35
e 17 37
e 17 40
e 17 44
e 17 45
e 18 20
e 18 21
e 18 22
e 18 23
e 18 24
e 18 25
e 18 26
e 18 28
e 18 29
e 18 31
e 18 34
e 18 37
e 18 40
e 18 41
e 18 44
e 19 22
e 19 23
e 19 27
e 19 30
e 19 35
e 19 37
e 19 39
e 19 45
e 20 21
e 20 22
e 20 25
e 20 26
e 20 30
e 20 34
e 20 39
e 20 41
e 20 45
e 21 22
e 21 23
e 21 24
e 21 25
e 21 26
e 21 27
e 21 31
e 21 33
e 21 35
e 21 36
e 21 38
e 21 39
e 21 40
e 21 41
e 21 43
e 21 45
e 21 46
e 22 25
e 22 26
e 22 27
e 22 29
e 22 31
e 22 33
e 22 34
e 22 35
e 22 36
e 22 41
e 22 42
e 23 27
e 23 31
e 23 34
e 23 38
e 23 40
e 23 45
e 23 46
e 24 26
e 24 28
e 24 32
e 24 34
e 24 35
e 24 36
e 24 39
e 24 42
e 24 44
e 24 46
e 25 27
e 25 29
e 25 30
e 25 32
e 25 37
e 25 38
e 25 40
e 25 42
e 26 27
e 26 32
e 26 38
e 26 42
e 26 43
e 26 46
e 27 28
e 27 34
e 27 35
e 27 37
e 27 39
e 27 43
e 27 45
e 28 30
e 28 33
e 28 35
e 28 38
e 28 40
e 28 43
e 28 44
e 29 30
e 29 32
e 29 33
e 29 35
e 29 36
e 29 37
e 29 38
e 29 41
e 29 43
e 29 44
e 29 46
e 30 31
e 30 41
e 30 44
e 31 33
e 31 37
e 31 44
e 31 45
e 32 33
e 32 35
e 32 39
e 32 40
e 32 42
e 32 44
e 32 46
e 33 36
e 33 43
e 33 44
e 33 46
e 34 36
e 34 40
e 34 43
e 34 44
e 34 46
e 35 36
e 35 37
e 35 39
e 35 42
e 35 43
e 35 44
e 35 45
e 36 37
e 36 38
e 36 41
e 36 43
e 36 44
e 36 45
e 37 38
e 37 40
e 37 42
e 37 44
e 37 45
e 38 41
e 38 46
e 39 41
e 39 42
e 39 44
e 39 46
e 40 44
e 41 43
e 41 44
e 41 45
e 41 46
e 42 44
e 42 46
